60
1 0 3
2 0 6
2 1 6
3 0 2
3 1 2
3 2 4
4 0 2
4 1 3
4 2 1
4 3 4
5 0 2
5 1 5
5 2 2
5 3 4
5 4 6
6 0 2
6 1 6
6 2 6
6 3 4
6 4 2
6 5 4
7 0 1
7 1 2
7 2 4
7 3 6
7 4 6
7 5 5
7 6 3
8 0 3
8 1 1
8 2 4
8 3 3
8 4 3
8 5 3
8 6 4
8 7 5
9 0 4
9 1 5
9 2 4
9 3 1
9 4 3
9 5 5
9 6 6
9 7 6
9 8 2
10 0 3
10 1 2
10 2 5
10 3 3
10 4 5
10 5 5
10 6 1
10 7 3
10 8 4
10 9 1
11 0 1
11 1 2
11 2 1
11 3 4
11 4 4
11 5 1
11 6 3
11 7 6
11 8 6
11 9 5
11 10 2
12 0 3
12 1 4
12 2 5
12 3 4
12 4 3
12 5 1
12 6 4
12 7 2
12 8 2
12 9 1
12 10 5
12 11 1
13 0 4
13 1 2
13 2 3
13 3 2
13 4 4
13 5 2
13 6 6
13 7 4
13 8 3
13 9 1
13 10 5
13 11 1
13 12 6
14 0 2
14 1 4
14 2 2
14 3 2
14 4 6
14 5 1
14 6 1
14 7 5
14 8 1
14 9 4
14 10 4
14 11 6
14 12 5
14 13 2
15 0 5
15 1 6
15 2 2
15 3 5
15 4 2
15 5 1
15 6 6
15 7 1
15 8 6
15 9 2
15 10 1
15 11 1
15 12 3
15 13 4
15 14 4
16 0 2
16 1 2
16 2 1
16 3 3
16 4 6
16 5 5
16 6 2
16 7 3
16 8 6
16 9 5
16 10 6
16 11 4
16 12 3
16 13 5
16 14 4
16 15 3
17 0 5
17 1 3
17 2 6
17 3 4
17 4 4
17 5 2
17 6 6
17 7 5
17 8 1
17 9 4
17 10 3
17 11 1
17 12 1
17 13 6
17 14 1
17 15 2
17 16 1
18 0 4
18 1 2
18 2 6
18 3 3
18 4 6
18 5 1
18 6 3
18 7 5
18 8 6
18 9 1
18 10 6
18 11 3
18 12 1
18 13 1
18 14 4
18 15 3
18 16 6
18 17 3
19 0 6
19 1 2
19 2 6
19 3 4
19 4 2
19 5 4
19 6 3
19 7 3
19 8 3
19 9 1
19 10 6
19 11 6
19 12 3
19 13 3
19 14 1
19 15 1
19 16 5
19 17 3
19 18 1
20 0 6
20 1 2
20 2 3
20 3 5
20 4 4
20 5 2
20 6 2
20 7 2
20 8 4
20 9 4
20 10 6
20 11 4
20 12 1
20 13 6
20 14 3
20 15 2
20 16 4
20 17 5
20 18 3
20 19 2
21 0 2
21 1 2
21 2 5
21 3 4
21 4 4
21 5 3
21 6 3
21 7 2
21 8 4
21 9 4
21 10 5
21 11 2
21 12 4
21 13 4
21 14 3
21 15 2
21 16 1
21 17 2
21 18 4
21 19 4
21 20 6
22 0 5
22 1 4
22 2 5
22 3 3
22 4 2
22 5 5
22 6 2
22 7 2
22 8 5
22 9 2
22 10 1
22 11 4
22 12 2
22 13 2
22 14 1
22 15 5
22 16 1
22 17 2
22 18 6
22 19 6
22 20 4
22 21 2
23 0 2
23 1 5
23 2 3
23 3 1
23 4 6
23 5 2
23 6 1
23 7 2
23 8 5
23 9 2
23 10 5
23 11 1
23 12 3
23 13 6
23 14 6
23 15 2
23 16 3
23 17 6
23 18 2
23 19 3
23 20 4
23 21 5
23 22 1
24 0 6
24 1 5
24 2 2
24 3 4
24 4 5
24 5 2
24 6 5
24 7 4
24 8 5
24 9 5
24 10 2
24 11 6
24 12 5
24 13 5
24 14 1
24 15 5
24 16 4
24 17 3
24 18 1
24 19 3
24 20 5
24 21 3
24 22 3
24 23 3
25 0 3
25 1 1
25 2 2
25 3 6
25 4 6
25 5 5
25 6 2
25 7 6
25 8 4
25 9 3
25 10 2
25 11 1
25 12 3
25 13 1
25 14 6
25 15 1
25 16 5
25 17 6
25 18 3
25 19 1
25 20 1
25 21 6
25 22 4
25 23 2
25 24 4
26 0 5
26 1 4
26 2 5
26 3 3
26 4 1
26 5 3
26 6 6
26 7 3
26 8 1
26 9 6
26 10 1
26 11 2
26 12 5
26 13 2
26 14 4
26 15 1
26 16 2
26 17 3
26 18 3
26 19 5
26 20 2
26 21 6
26 22 3
26 23 4
26 24 2
26 25 3
27 0 2
27 1 2
27 2 1
27 3 3
27 4 3
27 5 4
27 6 6
27 7 4
27 8 4
27 9 1
27 10 3
27 11 4
27 12 3
27 13 5
27 14 4
27 15 2
27 16 2
27 17 1
27 18 2
27 19 6
27 20 2
27 21 5
27 22 5
27 23 6
27 24 1
27 25 2
27 26 1
28 0 4
28 1 5
28 2 4
28 3 3
28 4 1
28 5 4
28 6 2
28 7 5
28 8 6
28 9 1
28 10 6
28 11 5
28 12 3
28 13 4
28 14 1
28 15 1
28 16 2
28 17 5
28 18 4
28 19 4
28 20 4
28 21 4
28 22 5
28 23 1
28 24 6
28 25 6
28 26 2
28 27 6
29 0 1
29 1 5
29 2 2
29 3 3
29 4 3
29 5 2
29 6 3
29 7 2
29 8 4
29 9 6
29 10 2
29 11 1
29 12 6
29 13 3
29 14 5
29 15 4
29 16 2
29 17 3
29 18 5
29 19 3
29 20 4
29 21 5
29 22 6
29 23 6
29 24 5
29 25 1
29 26 4
29 27 4
29 28 4
30 0 1
30 1 5
30 2 5
30 3 3
30 4 6
30 5 1
30 6 3
30 7 4
30 8 1
30 9 2
30 10 1
30 11 1
30 12 6
30 13 3
30 14 4
30 15 6
30 16 2
30 17 5
30 18 2
30 19 3
30 20 1
30 21 3
30 22 3
30 23 2
30 24 5
30 25 3
30 26 6
30 27 2
30 28 4
30 29 2
31 0 4
31 1 4
31 2 6
31 3 6
31 4 2
31 5 6
31 6 1
31 7 3
31 8 6
31 9 2
31 10 3
31 11 5
31 12 3
31 13 1
31 14 4
31 15 3
31 16 6
31 17 3
31 18 6
31 19 1
31 20 6
31 21 3
31 22 4
31 23 3
31 24 3
31 25 5
31 26 5
31 27 5
31 28 4
31 29 2
31 30 1
32 0 3
32 1 2
32 2 2
32 3 6
32 4 1
32 5 5
32 6 1
32 7 6
32 8 1
32 9 3
32 10 6
32 11 4
32 12 5
32 13 4
32 14 3
32 15 5
32 16 6
32 17 5
32 18 2
32 19 3
32 20 2
32 21 1
32 22 2
32 23 1
32 24 1
32 25 6
32 26 3
32 27 2
32 28 3
32 29 4
32 30 3
32 31 3
33 0 2
33 1 2
33 2 5
33 3 1
33 4 4
33 5 2
33 6 5
33 7 5
33 8 2
33 9 1
33 10 4
33 11 2
33 12 4
33 13 6
33 14 1
33 15 5
33 16 4
33 17 1
33 18 5
33 19 3
33 20 2
33 21 2
33 22 2
33 23 2
33 24 3
33 25 1
33 26 5
33 27 3
33 28 1
33 29 6
33 30 5
33 31 4
33 32 4
34 0 6
34 1 1
34 2 4
34 3 5
34 4 2
34 5 2
34 6 1
34 7 3
34 8 1
34 9 4
34 10 3
34 11 3
34 12 5
34 13 5
34 14 6
34 15 5
34 16 6
34 17 6
34 18 2
34 19 1
34 20 3
34 21 6
34 22 1
34 23 6
34 24 1
34 25 5
34 26 4
34 27 1
34 28 4
34 29 6
34 30 2
34 31 2
34 32 2
34 33 5
35 0 3
35 1 5
35 2 1
35 3 1
35 4 5
35 5 4
35 6 1
35 7 4
35 8 2
35 9 4
35 10 2
35 11 3
35 12 6
35 13 6
35 14 2
35 15 5
35 16 3
35 17 2
35 18 2
35 19 5
35 20 5
35 21 4
35 22 6
35 23 1
35 24 6
35 25 3
35 26 4
35 27 5
35 28 3
35 29 2
35 30 4
35 31 3
35 32 2
35 33 1
35 34 2
36 0 6
36 1 6
36 2 1
36 3 1
36 4 4
36 5 3
36 6 3
36 7 5
36 8 5
36 9 4
36 10 6
36 11 6
36 12 3
36 13 6
36 14 6
36 15 3
36 16 3
36 17 5
36 18 3
36 19 6
36 20 2
36 21 5
36 22 2
36 23 2
36 24 2
36 25 2
36 26 6
36 27 4
36 28 2
36 29 1
36 30 1
36 31 4
36 32 2
36 33 4
36 34 1
36 35 5
37 0 4
37 1 3
37 2 1
37 3 2
37 4 5
37 5 1
37 6 4
37 7 6
37 8 6
37 9 1
37 10 4
37 11 2
37 12 5
37 13 3
37 14 1
37 15 2
37 16 6
37 17 3
37 18 3
37 19 3
37 20 6
37 21 2
37 22 1
37 23 3
37 24 3
37 25 1
37 26 5
37 27 3
37 28 2
37 29 6
37 30 2
37 31 1
37 32 3
37 33 4
37 34 3
37 35 5
37 36 6
38 0 1
38 1 5
38 2 3
38 3 2
38 4 1
38 5 6
38 6 1
38 7 4
38 8 5
38 9 2
38 10 3
38 11 1
38 12 5
38 13 1
38 14 4
38 15 3
38 16 6
38 17 6
38 18 1
38 19 1
38 20 3
38 21 5
38 22 1
38 23 5
38 24 6
38 25 1
38 26 6
38 27 2
38 28 1
38 29 6
38 30 2
38 31 6
38 32 3
38 33 2
38 34 1
38 35 1
38 36 5
38 37 2
39 0 6
39 1 3
39 2 2
39 3 1
39 4 2
39 5 4
39 6 4
39 7 1
39 8 3
39 9 2
39 10 5
39 11 6
39 12 2
39 13 3
39 14 4
39 15 1
39 16 2
39 17 5
39 18 1
39 19 5
39 20 1
39 21 4
39 22 5
39 23 5
39 24 4
39 25 2
39 26 4
39 27 4
39 28 2
39 29 4
39 30 2
39 31 6
39 32 5
39 33 6
39 34 4
39 35 2
39 36 1
39 37 5
39 38 1
40 0 2
40 1 6
40 2 1
40 3 4
40 4 1
40 5 6
40 6 4
40 7 4
40 8 2
40 9 2
40 10 4
40 11 1
40 12 4
40 13 5
40 14 1
40 15 4
40 16 3
40 17 6
40 18 5
40 19 5
40 20 3
40 21 1
40 22 6
40 23 4
40 24 2
40 25 4
40 26 3
40 27 2
40 28 2
40 29 1
40 30 2
40 31 2
40 32 5
40 33 3
40 34 4
40 35 4
40 36 1
40 37 4
40 38 4
40 39 3
41 0 5
41 1 2
41 2 2
41 3 1
41 4 2
41 5 1
41 6 5
41 7 5
41 8 6
41 9 6
41 10 6
41 11 5
41 12 3
41 13 2
41 14 3
41 15 2
41 16 4
41 17 4
41 18 3
41 19 3
41 20 6
41 21 4
41 22 2
41 23 6
41 24 3
41 25 1
41 26 2
41 27 4
41 28 4
41 29 5
41 30 5
41 31 6
41 32 5
41 33 5
41 34 3
41 35 3
41 36 3
41 37 4
41 38 2
41 39 2
41 40 4
42 0 4
42 1 4
42 2 4
42 3 2
42 4 3
42 5 6
42 6 1
42 7 1
42 8 6
42 9 3
42 10 4
42 11 1
42 12 2
42 13 6
42 14 2
42 15 6
42 16 1
42 17 6
42 18 4
42 19 5
42 20 5
42 21 3
42 22 4
42 23 6
42 24 3
42 25 1
42 26 1
42 27 6
42 28 1
42 29 4
42 30 4
42 31 4
42 32 3
42 33 6
42 34 2
42 35 6
42 36 3
42 37 3
42 38 5
42 39 1
42 40 3
42 41 5
43 0 5
43 1 1
43 2 3
43 3 6
43 4 4
43 5 5
43 6 3
43 7 4
43 8 4
43 9 4
43 10 4
43 11 1
43 12 6
43 13 4
43 14 5
43 15 3
43 16 5
43 17 2
43 18 2
43 19 3
43 20 2
43 21 5
43 22 3
43 23 5
43 24 3
43 25 4
43 26 3
43 27 3
43 28 5
43 29 6
43 30 4
43 31 3
43 32 6
43 33 3
43 34 5
43 35 4
43 36 1
43 37 3
43 38 2
43 39 2
43 40 6
43 41 6
43 42 3
44 0 1
44 1 5
44 2 2
44 3 5
44 4 6
44 5 4
44 6 1
44 7 4
44 8 2
44 9 1
44 10 3
44 11 5
44 12 3
44 13 3
44 14 2
44 15 2
44 16 2
44 17 1
44 18 3
44 19 1
44 20 6
44 21 5
44 22 3
44 23 4
44 24 4
44 25 3
44 26 6
44 27 1
44 28 3
44 29 6
44 30 3
44 31 1
44 32 4
44 33 5
44 34 6
44 35 6
44 36 1
44 37 3
44 38 3
44 39 4
44 40 1
44 41 5
44 42 1
44 43 4
45 0 2
45 1 2
45 2 3
45 3 1
45 4 3
45 5 2
45 6 6
45 7 2
45 8 1
45 9 3
45 10 3
45 11 1
45 12 2
45 13 1
45 14 6
45 15 1
45 16 4
45 17 2
45 18 5
45 19 6
45 20 2
45 21 3
45 22 5
45 23 5
45 24 4
45 25 6
45 26 2
45 27 3
45 28 6
45 29 1
45 30 1
45 31 2
45 32 2
45 33 4
45 34 5
45 35 2
45 36 1
45 37 6
45 38 1
45 39 2
45 40 5
45 41 4
45 42 4
45 43 1
45 44 4
46 0 2
46 1 4
46 2 5
46 3 5
46 4 2
46 5 3
46 6 1
46 7 6
46 8 4
46 9 5
46 10 3
46 11 6
46 12 6
46 13 6
46 14 4
46 15 3
46 16 2
46 17 3
46 18 2
46 19 2
46 20 2
46 21 3
46 22 3
46 23 5
46 24 2
46 25 3
46 26 2
46 27 3
46 28 4
46 29 6
46 30 2
46 31 4
46 32 1
46 33 3
46 34 4
46 35 1
46 36 4
46 37 1
46 38 3
46 39 2
46 40 2
46 41 4
46 42 6
46 43 3
46 44 5
46 45 3
47 0 1
47 1 5
47 2 4
47 3 4
47 4 4
47 5 5
47 6 4
47 7 1
47 8 2
47 9 2
47 10 6
47 11 5
47 12 4
47 13 6
47 14 4
47 15 1
47 16 2
47 17 4
47 18 3
47 19 5
47 20 5
47 21 3
47 22 2
47 23 2
47 24 2
47 25 6
47 26 3
47 27 2
47 28 3
47 29 2
47 30 5
47 31 5
47 32 1
47 33 2
47 34 4
47 35 5
47 36 1
47 37 6
47 38 2
47 39 1
47 40 4
47 41 1
47 42 5
47 43 1
47 44 3
47 45 5
47 46 3
48 0 3
48 1 5
48 2 2
48 3 1
48 4 3
48 5 1
48 6 6
48 7 1
48 8 3
48 9 3
48 10 4
48 11 4
48 12 1
48 13 2
48 14 1
48 15 6
48 16 5
48 17 1
48 18 2
48 19 6
48 20 3
48 21 4
48 22 4
48 23 4
48 24 5
48 25 6
48 26 4
48 27 5
48 28 3
48 29 1
48 30 2
48 31 3
48 32 1
48 33 2
48 34 3
48 35 4
48 36 6
48 37 2
48 38 6
48 39 4
48 40 3
48 41 3
48 42 4
48 43 3
48 44 3
48 45 2
48 46 2
48 47 5
49 0 4
49 1 3
49 2 5
49 3 2
49 4 6
49 5 2
49 6 3
49 7 5
49 8 1
49 9 1
49 10 6
49 11 6
49 12 4
49 13 3
49 14 6
49 15 6
49 16 4
49 17 4
49 18 1
49 19 3
49 20 4
49 21 1
49 22 3
49 23 4
49 24 1
49 25 1
49 26 5
49 27 2
49 28 2
49 29 1
49 30 3
49 31 3
49 32 3
49 33 5
49 34 2
49 35 4
49 36 6
49 37 5
49 38 6
49 39 6
49 40 1
49 41 6
49 42 4
49 43 4
49 44 4
49 45 3
49 46 3
49 47 3
49 48 6
50 0 6
50 1 4
50 2 4
50 3 5
50 4 4
50 5 3
50 6 5
50 7 6
50 8 6
50 9 5
50 10 5
50 11 2
50 12 1
50 13 6
50 14 1
50 15 4
50 16 3
50 17 2
50 18 2
50 19 2
50 20 1
50 21 4
50 22 1
50 23 5
50 24 4
50 25 3
50 26 3
50 27 6
50 28 6
50 29 3
50 30 3
50 31 5
50 32 3
50 33 4
50 34 3
50 35 5
50 36 2
50 37 5
50 38 4
50 39 2
50 40 6
50 41 3
50 42 4
50 43 1
50 44 4
50 45 6
50 46 3
50 47 1
50 48 4
50 49 2
51 0 6
51 1 6
51 2 6
51 3 2
51 4 2
51 5 1
51 6 2
51 7 6
51 8 2
51 9 6
51 10 3
51 11 4
51 12 1
51 13 4
51 14 4
51 15 1
51 16 6
51 17 4
51 18 3
51 19 5
51 20 1
51 21 3
51 22 3
51 23 2
51 24 4
51 25 3
51 26 6
51 27 2
51 28 4
51 29 6
51 30 4
51 31 2
51 32 6
51 33 4
51 34 4
51 35 4
51 36 4
51 37 2
51 38 5
51 39 4
51 40 5
51 41 2
51 42 5
51 43 3
51 44 5
51 45 6
51 46 6
51 47 6
51 48 5
51 49 4
51 50 2
52 0 2
52 1 1
52 2 1
52 3 4
52 4 6
52 5 3
52 6 5
52 7 5
52 8 3
52 9 2
52 10 5
52 11 4
52 12 2
52 13 6
52 14 3
52 15 1
52 16 2
52 17 4
52 18 1
52 19 4
52 20 6
52 21 6
52 22 3
52 23 5
52 24 4
52 25 4
52 26 3
52 27 4
52 28 1
52 29 6
52 30 3
52 31 3
52 32 6
52 33 5
52 34 3
52 35 4
52 36 2
52 37 6
52 38 6
52 39 4
52 40 1
52 41 5
52 42 4
52 43 1
52 44 3
52 45 2
52 46 4
52 47 6
52 48 3
52 49 3
52 50 6
52 51 6
53 0 1
53 1 2
53 2 6
53 3 3
53 4 5
53 5 5
53 6 2
53 7 5
53 8 5
53 9 4
53 10 3
53 11 1
53 12 4
53 13 2
53 14 6
53 15 6
53 16 2
53 17 4
53 18 5
53 19 4
53 20 4
53 21 5
53 22 3
53 23 2
53 24 4
53 25 2
53 26 5
53 27 1
53 28 6
53 29 1
53 30 6
53 31 4
53 32 3
53 33 1
53 34 6
53 35 5
53 36 6
53 37 3
53 38 4
53 39 4
53 40 2
53 41 3
53 42 1
53 43 3
53 44 6
53 45 2
53 46 5
53 47 6
53 48 5
53 49 3
53 50 4
53 51 3
53 52 5
54 0 1
54 1 2
54 2 3
54 3 5
54 4 4
54 5 2
54 6 6
54 7 1
54 8 1
54 9 4
54 10 2
54 11 4
54 12 3
54 13 3
54 14 5
54 15 5
54 16 3
54 17 6
54 18 2
54 19 2
54 20 6
54 21 4
54 22 4
54 23 5
54 24 3
54 25 1
54 26 3
54 27 6
54 28 4
54 29 4
54 30 3
54 31 1
54 32 1
54 33 3
54 34 4
54 35 2
54 36 6
54 37 6
54 38 4
54 39 5
54 40 4
54 41 2
54 42 4
54 43 2
54 44 5
54 45 6
54 46 5
54 47 2
54 48 2
54 49 3
54 50 6
54 51 5
54 52 6
54 53 5
55 0 3
55 1 2
55 2 1
55 3 6
55 4 5
55 5 6
55 6 1
55 7 5
55 8 1
55 9 5
55 10 1
55 11 1
55 12 1
55 13 6
55 14 1
55 15 1
55 16 3
55 17 4
55 18 2
55 19 2
55 20 2
55 21 3
55 22 3
55 23 3
55 24 4
55 25 1
55 26 2
55 27 5
55 28 3
55 29 3
55 30 2
55 31 1
55 32 1
55 33 4
55 34 1
55 35 6
55 36 4
55 37 4
55 38 6
55 39 3
55 40 4
55 41 4
55 42 5
55 43 5
55 44 2
55 45 6
55 46 4
55 47 2
55 48 3
55 49 1
55 50 5
55 51 1
55 52 4
55 53 2
55 54 5
56 0 4
56 1 1
56 2 4
56 3 5
56 4 6
56 5 6
56 6 1
56 7 2
56 8 4
56 9 4
56 10 3
56 11 4
56 12 3
56 13 4
56 14 4
56 15 1
56 16 4
56 17 1
56 18 3
56 19 6
56 20 3
56 21 5
56 22 2
56 23 5
56 24 3
56 25 6
56 26 4
56 27 4
56 28 4
56 29 4
56 30 5
56 31 4
56 32 1
56 33 4
56 34 4
56 35 1
56 36 1
56 37 2
56 38 4
56 39 2
56 40 4
56 41 6
56 42 5
56 43 3
56 44 3
56 45 1
56 46 6
56 47 1
56 48 3
56 49 1
56 50 1
56 51 2
56 52 6
56 53 3
56 54 1
56 55 6
57 0 2
57 1 1
57 2 2
57 3 6
57 4 5
57 5 1
57 6 5
57 7 4
57 8 5
57 9 3
57 10 6
57 11 4
57 12 4
57 13 4
57 14 1
57 15 2
57 16 1
57 17 1
57 18 2
57 19 4
57 20 5
57 21 6
57 22 1
57 23 2
57 24 2
57 25 5
57 26 6
57 27 3
57 28 6
57 29 5
57 30 6
57 31 5
57 32 6
57 33 3
57 34 3
57 35 6
57 36 3
57 37 1
57 38 3
57 39 1
57 40 2
57 41 5
57 42 2
57 43 4
57 44 1
57 45 6
57 46 5
57 47 5
57 48 1
57 49 4
57 50 4
57 51 1
57 52 1
57 53 1
57 54 6
57 55 2
57 56 1
58 0 6
58 1 1
58 2 2
58 3 1
58 4 1
58 5 4
58 6 4
58 7 2
58 8 5
58 9 3
58 10 4
58 11 1
58 12 3
58 13 6
58 14 1
58 15 2
58 16 6
58 17 1
58 18 6
58 19 4
58 20 5
58 21 2
58 22 6
58 23 4
58 24 3
58 25 5
58 26 2
58 27 4
58 28 5
58 29 4
58 30 3
58 31 4
58 32 3
58 33 2
58 34 5
58 35 4
58 36 1
58 37 5
58 38 2
58 39 6
58 40 6
58 41 4
58 42 4
58 43 1
58 44 1
58 45 2
58 46 2
58 47 3
58 48 5
58 49 5
58 50 2
58 51 5
58 52 5
58 53 4
58 54 1
58 55 5
58 56 4
58 57 6
59 0 3
59 1 6
59 2 4
59 3 1
59 4 3
59 5 2
59 6 4
59 7 3
59 8 6
59 9 1
59 10 3
59 11 2
59 12 5
59 13 4
59 14 6
59 15 5
59 16 3
59 17 6
59 18 6
59 19 5
59 20 5
59 21 2
59 22 2
59 23 3
59 24 2
59 25 2
59 26 1
59 27 2
59 28 6
59 29 6
59 30 2
59 31 2
59 32 5
59 33 6
59 34 5
59 35 1
59 36 2
59 37 6
59 38 5
59 39 1
59 40 3
59 41 4
59 42 4
59 43 5
59 44 3
59 45 3
59 46 2
59 47 1
59 48 3
59 49 1
59 50 4
59 51 5
59 52 6
59 53 6
59 54 4
59 55 3
59 56 3
59 57 2
59 58 2
